# opt=(ts,calcfc,noeigentest,modredundant) freq=noraman gen integral=ultrafinegrid b3lyp pseudo=read

Title Card Required

7 1
Pd -1.894081 1.280409 -0.426133
N -3.257326 -0.056953 0.581259
C -3.049153 -0.599208 1.781495
C -3.819829 -1.713848 2.216845
H -3.618888 -2.129571 3.197705
C -4.775449 -2.261043 1.400882
H -5.352534 -3.124389 1.720748
C -5.016845 -1.694688 0.123504
C -5.985367 -2.193545 -0.784255
H -6.578008 -3.056319 -0.493279
C -6.169376 -1.596902 -2.012267
H -6.909986 -1.98608 -2.703555
C -5.399608 -0.466618 -2.374417
H -5.561669 0.008089 -3.337114
C -4.456241 0.043654 -1.507923
H -3.898907 0.946411 -1.769031
C -4.232239 -0.564814 -0.248457
C -1.97231 -0.046099 2.666206
H -0.986505 -0.439236 2.380471
H -2.151465 -0.320437 3.708597
H -1.93223 1.043908 2.589957
N 0.680424 0.419212 -0.104233
S 1.377556 -0.951248 0.47829
O 1.221796 -1.042085 1.944986
O 0.865767 -2.052432 -0.351701
C 3.1544 -0.853422 0.14341
C 3.657343 -1.533465 -0.968952
H 2.978769 -2.102418 -1.59405
C 5.021529 -1.485188 -1.243636
H 5.452248 -1.999349 -2.093428
C 5.847798 -0.757247 -0.388765
C 5.357693 -0.082237 0.728997
H 6.042696 0.464933 1.364131
C 3.992876 -0.133031 0.999284
H 3.570583 0.391868 1.846227
N 7.290667 -0.702136 -0.675814
O 7.69985 -1.301352 -1.670628
O 8.003934 -0.059039 0.0941
C 0.979275 1.626241 0.415868
C -0.015415 2.699327 -0.105471
C -0.501135 2.558642 -1.428225
H -0.036997 1.820405 -2.076723
H -0.995827 3.403259 -1.905925
C 0.037195 4.05004 0.578257
H 0.015773 3.95494 1.664438
H -0.770016 4.704386 0.24075
H 0.998817 4.50601 0.320085
H -1.32425 2.225037 0.676593
O 1.860907 2.006106 1.189511

B       1      48 B                                                           

Pd 0
LANL2DZ
F 1 1.0
1.472 1.0
 ****
O 0
6-31g(d,p)
 ****
C 0
6-31g(d,p)
 ****
H 0
6-31g(d,p)
 ****
N 0
6-31g(d,p)
 ****
S 0
6-31g(d,p)
 ****

Pd
LANL2DZ

